
Gurobi 10.0.3 (linux64, gurobi_cl) logging started Thu Nov  2 11:34:11 2023

Set parameter Username
Set parameter TimeLimit to value 3600
Set parameter LogFile to value "RCPSP_467.log"
Set parameter Threads to value 32
Academic license - for non-commercial use only - expires 2024-10-30
Using license file /home/jrivera6/gurobi-licenses/v1003/compute-0-39/gurobi.lic

Gurobi Optimizer version 10.0.3 build v10.0.3rc0 (linux64)
Copyright (c) 2023, Gurobi Optimization, LLC

Read MPS format model from file RCPSP_467.mps
Reading time = 0.01 seconds
RCPSP_467: 5349 rows, 2080 columns, 18893 nonzeros

CPU model: Intel(R) Xeon(R) Gold 6242 CPU @ 2.80GHz, instruction set [SSE2|AVX|AVX2|AVX512]
Thread count: 32 physical cores, 32 logical processors, using up to 32 threads

Optimize a model with 5349 rows, 2080 columns and 18893 nonzeros
Model fingerprint: 0x22ffcd28
Variable types: 32 continuous, 2048 integer (2048 binary)
Coefficient statistics:
  Matrix range     [1e+00, 2e+02]
  Objective range  [1e+00, 1e+00]
  Bounds range     [1e+00, 1e+00]
  RHS range        [1e+00, 2e+02]
Presolve removed 3176 rows and 1251 columns
Presolve time: 0.25s
Presolved: 2173 rows, 829 columns, 7684 nonzeros
Variable types: 31 continuous, 798 integer (798 binary)

Root relaxation: objective 6.000000e+01, 286 iterations, 0.00 seconds (0.00 work units)

    Nodes    |    Current Node    |     Objective Bounds      |     Work
 Expl Unexpl |  Obj  Depth IntInf | Incumbent    BestBd   Gap | It/Node Time

     0     0   60.00000    0    2          -   60.00000      -     -    0s
H    0     0                      65.0000000   60.00000  7.69%     -    0s
     0     0   60.00000    0   14   65.00000   60.00000  7.69%     -    0s
     0     0   60.00000    0    2   65.00000   60.00000  7.69%     -    2s
     0     0   61.00000    0    1   65.00000   61.00000  6.15%     -    3s
     0     0   61.00000    0    1   65.00000   61.00000  6.15%     -    3s
     0     0   61.00000    0   31   65.00000   61.00000  6.15%     -    4s
H    0     0                      64.0000000   61.00000  4.69%     -    4s
     0     0   61.00000    0   29   64.00000   61.00000  4.69%     -    4s
     0     0   62.00000    0    8   64.00000   62.00000  3.12%     -    5s
H    0     0                      63.0000000   62.00000  1.59%     -    6s
     0     0   62.00000    0    6   63.00000   62.00000  1.59%     -    7s
     0     0   62.00000    0    6   63.00000   62.00000  1.59%     -    7s
     0     0   62.00000    0   12   63.00000   62.00000  1.59%     -    7s
     0     0   62.00000    0   12   63.00000   62.00000  1.59%     -    8s
     0     2   62.00000    0    6   63.00000   62.00000  1.59%     -    9s
    34     9   62.00000    8    8   63.00000   62.00000  1.59%   9.2   10s

Cutting planes:
  Learned: 2
  Cover: 18
  Implied bound: 5
  Clique: 9
  MIR: 20
  StrongCG: 3
  Inf proof: 1
  RLT: 5
  Relax-and-lift: 8

Explored 78 nodes (3750 simplex iterations) in 10.66 seconds (0.46 work units)
Thread count was 32 (of 32 available processors)

Solution count 3: 63 64 65 

Optimal solution found (tolerance 1.00e-04)
Best objective 6.300000000000e+01, best bound 6.300000000000e+01, gap 0.0000%

Wrote result file 'RCPSP_467.sol'

